c WARNING: for repeatability, setting FPU to use double precision
d VARIABLES            26433        
d CONSTRAINTS          94512        
c ============================[ Problem Statistics ]=============================
c |                                                                             |
c |  Number of variables:         26433                                         |
c |  Number of clauses:           94512                                         |
c |  Parse time:                   0.01 s                                       |
c |                                                                             |
c ============================[ Search Statistics ]==============================
c | Conflicts |          ORIGINAL         |          LEARNT          | Progress |
c |           |    Vars  Clauses Literals |    Limit  Clauses Lit/Cl |          |
c ===============================================================================
c |       100 |   16290    67314   165650 |    24681       97     69 | 38.373 % |
c |       250 |   16290    67290   165591 |    27149      247     57 | 38.372 % |
c |       475 |   16290    67290   165591 |    29864      472     70 | 38.372 % |
c |       812 |   16290    67290   165591 |    32851      809     72 | 38.372 % |
c |      1318 |   16290    67290   165591 |    36136     1315     76 | 38.372 % |
c |      2077 |   16290    67290   165591 |    39750     2074     73 | 38.372 % |
c |      3216 |   16290    67290   165591 |    43725     3213     79 | 38.372 % |
c |      4924 |   16290    67290   165591 |    48097     4921     74 | 38.372 % |
c |      7486 |   16290    67290   165591 |    52907     7483     74 | 38.372 % |
c |     11330 |   16290    67290   165591 |    58198    11327     73 | 38.372 % |
c |     17096 |   16290    67290   165591 |    64018    17093     70 | 38.372 % |
c |     25745 |   16290    67290   165591 |    70420    25742     63 | 38.372 % |
c |     38719 |   16290    67290   165591 |    77462    38716     62 | 38.373 % |
c |     58180 |   16290    67290   165591 |    85208    58177     66 | 38.372 % |
c |     87372 |   16290    67290   165591 |    93729    87369     65 | 38.373 % |
c |    131161 |   16290    67290   165591 |   103102    47499     56 | 38.373 % |
c ===============================================================================
c restarts              : 458
c conflicts             : 168797         (4651 /sec)
c decisions             : 264180         (0.00 % random) (7280 /sec)
c propagations          : 124114781      (3420057 /sec)
c conflict literals     : 9864224        (58.95 % deleted)
d RESTARTS             458
d FAILURES             168797       
d NODES                264180       
d BACKTRACKS           264180       
d PROPAGATIONS         124114781    
d NOGOODSIZE           58.44 
d MEMORY               54.00 
d TIME                 36.2903 

s UNSATISFIABLE
